data/solutions/recovery/degenerate/moderate/flexible/degenerate_moderate_instance20/31.sol
Elapsed time: 4.19
Upper bound: 154417741.0
Planning weighted value: 2258525162.0
C[0]=154417741.0
C[1]=154409610.0
C[2]=154307485.0
C[3]=153815030.0
y[0]=3
y[1]=3
y[2]=0
y[3]=0
y[4]=3
y[5]=2
y[6]=2
y[7]=1
y[8]=0
y[9]=2
y[10]=0
y[11]=0
y[12]=2
y[13]=1
y[14]=0
y[15]=1
y[16]=0
y[17]=3
y[18]=2
y[19]=2
y[20]=1
y[21]=2
y[22]=3
y[23]=1
y[24]=1
y[25]=1
y[26]=3
y[27]=0
y[28]=0
y[29]=0
y[30]=1
y[31]=3
y[32]=3
y[33]=3
y[34]=0
y[35]=2
