data/solutions/recovery/degenerate/moderate/flexible/degenerate_moderate_instance20/31.log

Log started (V12.6.3.0) Sat Apr 21 11:03:42 2018

New value for default parallel thread count: 1

Problem '/tmp/tmpHMyVVb.pyomo.lp' read.
Read time = 0.00 sec. (0.06 ticks)

Problem name         : /tmp/tmpHMyVVb.pyomo.lp
Objective sense      : Minimize
Variables            :     150  [Nneg: 1,  Binary: 144,  General Integer: 5]
Objective nonzeros   :       1
Linear constraints   :      81  [Less: 40,  Equal: 41]
  Nonzeros           :    4081
  RHS nonzeros       :      73

Variables            : Min LB: 0.000000         Max UB: 1.000000       
Objective nonzeros   : Min   : 1.000000         Max   : 1.000000       
Linear constraints   :
  Nonzeros           : Min   : 1.000000         Max   : 3.355443e+07   
  RHS nonzeros       : Min   : 1.000000         Max   : 4.000000       
Tried aggregator 1 time.
MIP Presolve eliminated 36 rows and 1 columns.
Reduced MIP has 45 rows, 149 columns, and 405 nonzeros.
Reduced MIP has 144 binaries, 5 generals, 0 SOSs, and 0 indicators.
Presolve time = 0.00 sec. (0.90 ticks)
Found incumbent of value 2.4132485e+08 after 0.00 sec. (1.06 ticks)
Probing time = 0.00 sec. (0.40 ticks)
Cover probing fixed 0 vars, tightened 9 bounds.
Tried aggregator 1 time.
Reduced MIP has 45 rows, 149 columns, and 405 nonzeros.
Reduced MIP has 144 binaries, 5 generals, 0 SOSs, and 0 indicators.
Presolve time = 0.00 sec. (0.27 ticks)
Probing time = 0.00 sec. (0.14 ticks)
Cover probing fixed 0 vars, tightened 8 bounds.
Clique table members: 36.
MIP emphasis: balance optimality and feasibility.
MIP search method: dynamic search.
Parallel mode: none, using 1 thread.
Root relaxation solution time = 0.00 sec. (0.21 ticks)

        Nodes                                         Cuts/
   Node  Left     Objective  IInf  Best Integer    Best Bound    ItCnt     Gap

*     0+    0                       2.41325e+08        0.0000           100.00%
      0     0   1.54237e+08    10   2.41325e+08   1.54237e+08       52   36.09%
      0     0   1.54237e+08     9   2.41325e+08      Fract: 3       62   36.09%
      0     0   1.54237e+08    12   2.41325e+08      Fract: 1       66   36.09%
*     0+    0                       1.68371e+08   1.54237e+08             8.39%
*     0+    0                       1.61152e+08   1.54237e+08             4.29%
      0     2   1.54237e+08     8   1.61152e+08   1.54237e+08       66    4.29%
Elapsed time = 0.01 sec. (6.94 ticks, tree = 0.01 MB, solutions = 2)
*    10+   10                       1.59757e+08   1.54237e+08             3.45%
*    30+   23                       1.57440e+08   1.54237e+08             2.03%
*    40+   28                       1.56994e+08   1.54237e+08             1.76%
*    60+   31                       1.56665e+08   1.54237e+08             1.55%
*   440+   81                       1.55527e+08   1.54237e+08             0.83%
*   620+   91                       1.55435e+08   1.54237e+08             0.77%
*   680+   86                       1.54982e+08   1.54237e+08             0.48%
*  1020+   88                       1.54902e+08   1.54237e+08             0.43%
   2419    78   1.54237e+08    10   1.54902e+08   1.54237e+08     9561    0.43%
   2420    78   1.54237e+08    10   1.54902e+08   1.54237e+08     9561    0.43%
   2421    79   1.54237e+08    10   1.54902e+08   1.54237e+08     9562    0.43%
   2422    78   1.54237e+08    10   1.54902e+08   1.54237e+08     9563    0.43%
   2423    78   1.54237e+08    10   1.54902e+08   1.54237e+08     9564    0.43%
   2424    78   1.54237e+08    10   1.54902e+08   1.54237e+08     9565    0.43%
   2425    77   1.54237e+08    10   1.54902e+08   1.54237e+08     9566    0.43%
   2426    77   1.54237e+08    10   1.54902e+08   1.54237e+08     9567    0.43%
   2427    76   1.54237e+08    10   1.54902e+08   1.54237e+08     9568    0.43%
*  2519+  101                       1.54792e+08   1.54237e+08             0.36%
*  2919+  292                       1.54600e+08   1.54237e+08             0.23%
*  3219+  474                       1.54471e+08   1.54237e+08             0.15%
   5676   369        cutoff         1.54471e+08   1.54237e+08    20256    0.15%
Elapsed time = 1.11 sec. (960.65 ticks, tree = 0.10 MB, solutions = 13)
  15734   128   1.54237e+08     8   1.54471e+08   1.54237e+08    61530    0.15%
  15735   129   1.54237e+08     6   1.54471e+08   1.54237e+08    61531    0.15%
  15736   130   1.54237e+08     6   1.54471e+08   1.54237e+08    61533    0.15%
  15737   131   1.54237e+08     6   1.54471e+08   1.54237e+08    61534    0.15%
  15738   132   1.54237e+08     6   1.54471e+08   1.54237e+08    61535    0.15%
  15739   133   1.54237e+08     6   1.54471e+08   1.54237e+08    61536    0.15%
  15740   134   1.54237e+08     6   1.54471e+08   1.54237e+08    61537    0.15%
  15741   135   1.54237e+08     6   1.54471e+08   1.54237e+08    61538    0.15%
  15742   136   1.54237e+08     6   1.54471e+08   1.54237e+08    61539    0.15%
  15743   137   1.54237e+08     6   1.54471e+08   1.54237e+08    61540    0.15%
Elapsed time = 2.27 sec. (1914.94 ticks, tree = 0.05 MB, solutions = 13)
  26385   312        cutoff         1.54471e+08   1.54237e+08   105922    0.15%
  26386   311    infeasible         1.54471e+08   1.54237e+08   105922    0.15%
  26387   310        cutoff         1.54471e+08   1.54237e+08   105934    0.15%
  26388   311   1.54237e+08    14   1.54471e+08   1.54237e+08   105943    0.15%
  26389   312   1.54237e+08    10   1.54471e+08   1.54237e+08   105946    0.15%
  26390   313   1.54237e+08    12   1.54471e+08   1.54237e+08   105949    0.15%
  26391   314   1.54237e+08    12   1.54471e+08   1.54237e+08   105950    0.15%
  26392   315   1.54237e+08    12   1.54471e+08   1.54237e+08   105951    0.15%
  26393   316   1.54237e+08    11   1.54471e+08   1.54237e+08   105953    0.15%
  26394   317   1.54237e+08    12   1.54471e+08   1.54237e+08   105954    0.15%
Elapsed time = 3.39 sec. (2869.93 ticks, tree = 0.10 MB, solutions = 13)
* 29645   285      integral     0   1.54457e+08   1.54237e+08   122929    0.14%
* 32690   127      integral     0   1.54418e+08   1.54307e+08   138061    0.07%

Cover cuts applied:  31
Mixed integer rounding cuts applied:  4
Gomory fractional cuts applied:  2

Root node processing (before b&c):
  Real time             =    0.01 sec. (6.95 ticks)
Sequential b&c:
  Real time             =    4.13 sec. (3525.12 ticks)
                          ------------
Total (root+branch&cut) =    4.14 sec. (3532.07 ticks)

Solution pool: 15 solutions saved.

MIP - Integer optimal, tolerance (0.0001/1e-06):  Objective =  1.5441774100e+08
Current MIP best bound =  1.5440248700e+08 (gap = 15254, 0.01%)
Solution time =    4.14 sec.  Iterations = 138737  Nodes = 32873 (16)
Deterministic time = 3532.07 ticks  (852.82 ticks/sec)


Incumbent solution written to file '/tmp/tmp9g2rJH.cplex.sol'.
